objective value:                                   28
A_1_3                                               1 	(obj:1)
A_2_3                                               1 	(obj:1)
A_2_4                                               1 	(obj:1)
A_3_2                                               1 	(obj:1)
A_3_4                                               1 	(obj:1)
A_4_2                                               1 	(obj:1)
A_4_5                                               1 	(obj:1)
A_5_1                                               1 	(obj:1)
A_5_5                                               1 	(obj:1)
A_6_1                                               1 	(obj:1)
A_6_6                                               1 	(obj:1)
A_7_0                                               1 	(obj:1)
A_7_6                                               1 	(obj:1)
A_8_0                                               1 	(obj:1)
A_8_7                                               1 	(obj:1)
A_9_0                                               1 	(obj:1)
A_9_6                                               1 	(obj:1)
A_10_1                                              1 	(obj:1)
A_10_6                                              1 	(obj:1)
A_11_1                                              1 	(obj:1)
A_11_5                                              1 	(obj:1)
A_12_2                                              1 	(obj:1)
A_12_5                                              1 	(obj:1)
A_13_2                                              1 	(obj:1)
A_13_4                                              1 	(obj:1)
A_14_3                                              1 	(obj:1)
A_14_4                                              1 	(obj:1)
A_15_3                                              1 	(obj:1)
